Cu O  C  O                              
   1.00000000000000     
     7.2627301215999998    0.0000000000000000    0.0000000000000000
     0.0000000000000000    7.2627301215999998    0.0000000000000000
     0.0000000000000000    0.0000000000000000   27.0784126519999973
   Cu   O    C    O 
    48     1     1     1
Selective dynamics
Direct
  0.0000000000000000  0.0000000000000000  0.0000000000000000   F   F   F
  0.5000000000000000  0.2500000000000000  0.0670527683337383   F   F   F
  0.7500000000000000  0.0000000000000000  0.0670527683337383   F   F   F
  0.5000381118429829  0.9999356305960276  0.1317903067770771   F   F   F
  0.7500745778582356  0.2499959702115291  0.1317731647014853   F   F   F
  0.5002380142120444  0.2498948474798297  0.1963463972939152   F   F   F
  0.7501508101272023  0.9999451475308021  0.1963300052228760   F   F   F
  0.5003965155567442  0.9999625647742292  0.2613060540370356   F   F   F
  0.7502149305231782  0.2497910081999422  0.2612922099058679   F   F   F
  0.5001548163720386  0.2500690208842187  0.3250624098345654   F   F   F
  0.7500000000000000  0.2500000000000000  0.0000000000000000   F   F   F
  0.7504314172634210  0.9998513181249749  0.3251242551323159   F   F   F
  0.7500000000000000  0.7500000000000000  0.0000000000000000   F   F   F
  0.5000000000000000  0.7500000000000000  0.0670527683337383   F   F   F
  0.7500000000000000  0.5000000000000000  0.0670527683337383   F   F   F
  0.5000285383041856  0.4999943081590033  0.1317827962919722   F   F   F
  0.7500994507000200  0.7499499355446346  0.1317933734744940   F   F   F
  0.5001475257711760  0.7499696343583508  0.1963567005759757   F   F   F
  0.7501285778303242  0.4998974878089300  0.1963381377123028   F   F   F
  0.5003549993568441  0.4998489779055078  0.2611954132897907   F   F   F
  0.7500968428339974  0.7499394909609549  0.2612647073421570   F   F   F
  0.5000000000000000  0.5000000000000000  0.0000000000000000   F   F   F
  0.5000000000000000  0.0000000000000000  0.0000000000000000   F   F   F
  0.2504185189452244  0.4994127742104979  0.3247363886501944   F   F   F
  0.0001404867214276  0.7500702953330034  0.3248681467098535   F   F   F
  0.2500000000000000  0.2500000000000000  0.0000000000000000   F   F   F
  0.0000000000000000  0.2500000000000000  0.0670527683337383   F   F   F
  0.2500000000000000  0.0000000000000000  0.0670527683337383   F   F   F
  0.0001195012113442  0.9998772929593258  0.1317715319991137   F   F   F
  0.2500799720598934  0.2499563710321056  0.1318055115477890   F   F   F
  0.0001098333569587  0.2498649118620122  0.1963206738648324   F   F   F
  0.2502098670585937  0.9998528880660587  0.1963594143668246   F   F   F
  0.0000920475791730  0.9999459046369381  0.2612143847169719   F   F   F
  0.2502050779238445  0.2496459876743202  0.2611923795143056   F   F   F
  0.0002759018349323  0.2496248110920050  0.3250493404654620   F   F   F
  0.2499512024163195  0.9999597256858763  0.3249667591019119   F   F   F
  0.0000000000000000  0.5000000000000000  0.0000000000000000   F   F   F
  0.2500000000000000  0.7500000000000000  0.0000000000000000   F   F   F
  0.0000000000000000  0.7500000000000000  0.0670527683337383   F   F   F
  0.2500000000000000  0.5000000000000000  0.0670527683337383   F   F   F
  0.0000933525894737  0.4999750959544116  0.1317957350320427   F   F   F
  0.2500657581526511  0.7499284243847626  0.1317985550206373   F   F   F
  0.0001329320307590  0.7499218707150774  0.1963731397387747   F   F   F
  0.2501692709497334  0.4999211143413120  0.1963719036369582   F   F   F
  0.9999345971854794  0.4996939404590464  0.2612315449489273   F   F   F
  0.2502275478809892  0.7499188786672093  0.2612714948693053   F   F   F
  0.5003623655041523  0.7495517044423607  0.3249850578607933   F   F   F
  0.7500406217772380  0.4998716865801072  0.3250523538190535   F   F   F
  0.3756811537233276  0.8255297162136941  0.4410875981525706   T   T   T
  0.2588132111860375  0.7132312458179868  0.4406368688187996   T   T   T
  0.1419491271432491  0.6008705147365632  0.4397356265393158   T   T   T
 
  0.00000000E+00  0.00000000E+00  0.00000000E+00
  0.00000000E+00  0.00000000E+00  0.00000000E+00
  0.00000000E+00  0.00000000E+00  0.00000000E+00
  0.00000000E+00  0.00000000E+00  0.00000000E+00
  0.00000000E+00  0.00000000E+00  0.00000000E+00
  0.00000000E+00  0.00000000E+00  0.00000000E+00
  0.00000000E+00  0.00000000E+00  0.00000000E+00
  0.00000000E+00  0.00000000E+00  0.00000000E+00
  0.00000000E+00  0.00000000E+00  0.00000000E+00
  0.00000000E+00  0.00000000E+00  0.00000000E+00
  0.00000000E+00  0.00000000E+00  0.00000000E+00
  0.00000000E+00  0.00000000E+00  0.00000000E+00
  0.00000000E+00  0.00000000E+00  0.00000000E+00
  0.00000000E+00  0.00000000E+00  0.00000000E+00
  0.00000000E+00  0.00000000E+00  0.00000000E+00
  0.00000000E+00  0.00000000E+00  0.00000000E+00
  0.00000000E+00  0.00000000E+00  0.00000000E+00
  0.00000000E+00  0.00000000E+00  0.00000000E+00
  0.00000000E+00  0.00000000E+00  0.00000000E+00
  0.00000000E+00  0.00000000E+00  0.00000000E+00
  0.00000000E+00  0.00000000E+00  0.00000000E+00
  0.00000000E+00  0.00000000E+00  0.00000000E+00
  0.00000000E+00  0.00000000E+00  0.00000000E+00
  0.00000000E+00  0.00000000E+00  0.00000000E+00
  0.00000000E+00  0.00000000E+00  0.00000000E+00
  0.00000000E+00  0.00000000E+00  0.00000000E+00
  0.00000000E+00  0.00000000E+00  0.00000000E+00
  0.00000000E+00  0.00000000E+00  0.00000000E+00
  0.00000000E+00  0.00000000E+00  0.00000000E+00
  0.00000000E+00  0.00000000E+00  0.00000000E+00
  0.00000000E+00  0.00000000E+00  0.00000000E+00
  0.00000000E+00  0.00000000E+00  0.00000000E+00
  0.00000000E+00  0.00000000E+00  0.00000000E+00
  0.00000000E+00  0.00000000E+00  0.00000000E+00
  0.00000000E+00  0.00000000E+00  0.00000000E+00
  0.00000000E+00  0.00000000E+00  0.00000000E+00
  0.00000000E+00  0.00000000E+00  0.00000000E+00
  0.00000000E+00  0.00000000E+00  0.00000000E+00
  0.00000000E+00  0.00000000E+00  0.00000000E+00
  0.00000000E+00  0.00000000E+00  0.00000000E+00
  0.00000000E+00  0.00000000E+00  0.00000000E+00
  0.00000000E+00  0.00000000E+00  0.00000000E+00
  0.00000000E+00  0.00000000E+00  0.00000000E+00
  0.00000000E+00  0.00000000E+00  0.00000000E+00
  0.00000000E+00  0.00000000E+00  0.00000000E+00
  0.00000000E+00  0.00000000E+00  0.00000000E+00
  0.00000000E+00  0.00000000E+00  0.00000000E+00
  0.00000000E+00  0.00000000E+00  0.00000000E+00
  0.00000000E+00  0.00000000E+00  0.00000000E+00
  0.00000000E+00  0.00000000E+00  0.00000000E+00
  0.00000000E+00  0.00000000E+00  0.00000000E+00
