Cu O  C  O                              
   1.00000000000000     
     7.2627301215999998    0.0000000000000000    0.0000000000000000
     0.0000000000000000    7.2627301215999998    0.0000000000000000
     0.0000000000000000    0.0000000000000000   27.0784126519999973
   Cu   O    C    O 
    48     1     1     1
Selective dynamics
Direct
 0.0000000000000000  0.0000000000000000  0.0000000000000000  F F F
 0.5000000000000000  0.2500000000000000  0.0670527683337383  F F F
 0.7500000000000000  0.0000000000000000  0.0670527683337383  F F F
 0.4999381239352019  0.9998357806486737  0.1317054944837537  T T T
 0.7498607133895305  0.2502339765854771  0.1316117861060917  T T T
 0.4997363355651956  0.2492917578163016  0.1962740204782563  T T T
 0.7491222990448776  0.0006892932698150  0.1960854949216895  T T T
 0.4996821402731015  0.0006727450311459  0.2620112700627359  T T T
 0.7473275969144453  0.2518167727847569  0.2613911141053507  T T T
 0.5015607293748729  0.2397882562452978  0.3275647496327565  T T T
 0.7500000000000000  0.2500000000000000  0.0000000000000000  F F F
 0.7540097133178136  0.9993034570655865  0.3239446011095168  T T T
 0.7500000000000000  0.7500000000000000  0.0000000000000000  F F F
 0.5000000000000000  0.7500000000000000  0.0670527683337383  F F F
 0.7500000000000000  0.5000000000000000  0.0670527683337383  F F F
 0.5006040675885188  0.5002891651262615  0.1319885501334781  T T T
 0.7498292616865356  0.7495789545992650  0.1317839464372881  T T T
 0.4998397564334525  0.7506716891028660  0.1965224940339994  T T T
 0.7513681268598589  0.4991733795825937  0.1965132493545454  T T T
 0.4995285023106959  0.4986280393179712  0.2604575992230735  T T T
 0.7503413879475076  0.7494659335675919  0.2600451440849625  T T T
 0.5000000000000000  0.5000000000000000  0.0000000000000000  F F F
 0.5000000000000000  0.0000000000000000  0.0000000000000000  F F F
 0.2408266291210310  0.5007215905224527  0.3276111276149365  T T T
 0.0003495898260937  0.7531658395925760  0.3239811745763319  T T T
 0.2500000000000000  0.2500000000000000  0.0000000000000000  F F F
 0.0000000000000000  0.2500000000000000  0.0670527683337383  F F F
 0.2500000000000000  0.0000000000000000  0.0670527683337383  F F F
 0.9999134315324127  0.9996470400588748  0.1318260292075877  T T T
 0.2501072236959700  0.2497778613545449  0.1317443306477841  T T T
 0.9999512161066875  0.2503951261302433  0.1962080441039191  T T T
 0.2509092964249788  0.9994113719347268  0.1962852998788591  T T T
 0.0004154592545120  0.9996958644235647  0.2599616414276156  T T T
 0.2513198371176344  0.2504798755857038  0.2614515930159769  T T T
 0.9964472237627078  0.2464545489625607  0.3240553220606515  T T T
 0.2474811575086875  0.9953303450177344  0.3241004808434340  T T T
 0.0000000000000000  0.5000000000000000  0.0000000000000000  F F F
 0.2500000000000000  0.7500000000000000  0.0000000000000000  F F F
 0.0000000000000000  0.7500000000000000  0.0670527683337383  F F F
 0.2500000000000000  0.5000000000000000  0.0670527683337383  F F F
 0.0002227756600561  0.4999315197166538  0.1317172766988719  T T T
 0.2504323022959838  0.7496581136423330  0.1316733256941802  T T T
 0.0012134645850637  0.7487084012382397  0.1961349056033299  T T T
 0.2500822461197743  0.4990363337615307  0.1962617485196603  T T T
 0.0018174477531545  0.4988793857405511  0.2619968507756028  T T T
 0.2527306289821567  0.7463409485049368  0.2614181648267362  T T T
 0.5068858029680570  0.7502129593632816  0.3264489119583232  T T T
 0.7513225422036314  0.5058296177786019  0.3263141666544485  T T T
 0.6239018749664851  0.6186009032285753  0.4210956079216146  T T T
 0.5564261827374111  0.5539216517591115  0.3836788923402921  T T T
 0.4252147818949367  0.4245678045741882  0.3810657272870218  T T T
