Cu O  C  O                              
   1.00000000000000     
     7.2627301215999998    0.0000000000000000    0.0000000000000000
     0.0000000000000000    7.2627301215999998    0.0000000000000000
     0.0000000000000000    0.0000000000000000   27.0784126519999973
   Cu   O    C    O 
    48     1     1     1
Selective dynamics
Direct
  0.0000000000000000  0.0000000000000000  0.0000000000000000   F   F   F
  0.5000000000000000  0.2500000000000000  0.0670527683337383   F   F   F
  0.7500000000000000  0.0000000000000000  0.0670527683337383   F   F   F
  0.4999315711728506 -0.0001016428634802  0.1317957785865377   T   T   T
  0.7498706512967390  0.2499012663705573  0.1317899225436961   T   T   T
  0.4998699038532586  0.2497974458056856  0.1963784158935794   T   T   T
  0.7498506240686775  0.9998320771262462  0.1963535014351668   T   T   T
  0.4996775999943664 -0.0006611065846599  0.2611896733407637   T   T   T
  0.7498942501550134  0.2497280394925882  0.2612442878937621   T   T   T
  0.4992549996302206  0.2494085041842676  0.3246047155629410   T   T   T
  0.7500000000000000  0.2500000000000000  0.0000000000000000   F   F   F
  0.7499047755092981 -0.0002312766878771  0.3249643487705374   T   T   T
  0.7500000000000000  0.7500000000000000  0.0000000000000000   F   F   F
  0.5000000000000000  0.7500000000000000  0.0670527683337383   F   F   F
  0.7500000000000000  0.5000000000000000  0.0670527683337383   F   F   F
  0.4999255920633324  0.4998346460297375  0.1317844081118946   T   T   T
  0.7499549508508517  0.7499203022414155  0.1317974543051619   T   T   T
  0.4998658931982275  0.7497019724831655  0.1963194974188082   T   T   T
  0.7498597342595398  0.4997986881238275  0.1963552390447382   T   T   T
  0.4997863367956535  0.4998310452852306  0.2612242984039383   T   T   T
  0.7498645985566947  0.7498031556916721  0.2612438642045717   T   T   T
  0.5000000000000000  0.5000000000000000  0.0000000000000000   F   F   F
  0.5000000000000000  0.0000000000000000  0.0000000000000000   F   F   F
  0.2499465605664803  0.4996984363566416  0.3250208892690597   T   T   T
 -0.0001086837974937  0.7498658704424401  0.3250326668661866   T   T   T
  0.2500000000000000  0.2500000000000000  0.0000000000000000   F   F   F
  0.0000000000000000  0.2500000000000000  0.0670527683337383   F   F   F
  0.2500000000000000  0.0000000000000000  0.0670527683337383   F   F   F
 -0.0001155567168027 -0.0001047560633664  0.1317611279016186   T   T   T
  0.2499319093969043  0.2499129464064987  0.1318002973668534   T   T   T
 -0.0002321755318067  0.2498303879283870  0.1963222205076170   T   T   T
  0.2498032768778505  0.9997575690929656  0.1962987721066044   T   T   T
 -0.0001943100319576 -0.0003137570296494  0.2611917897614844   T   T   T
  0.2494353978774746  0.2496512968548512  0.2611823009774800   T   T   T
 -0.0003058959041992  0.2494787122305629  0.3250118564868663   T   T   T
  0.2494793717248870 -0.0005665485744007  0.3249820814392883   T   T   T
  0.0000000000000000  0.5000000000000000  0.0000000000000000   F   F   F
  0.2500000000000000  0.7500000000000000  0.0000000000000000   F   F   F
  0.0000000000000000  0.7500000000000000  0.0670527683337383   F   F   F
  0.2500000000000000  0.5000000000000000  0.0670527683337383   F   F   F
 -0.0000650203037238  0.4999153850882466  0.1317936478954654   T   T   T
  0.2499319712511109  0.7498746896529769  0.1317619781864629   T   T   T
 -0.0001271824089139  0.7497958345944057  0.1963291937267042   T   T   T
  0.2498717494300408  0.4998320485160206  0.1963486542637505   T   T   T
 -0.0000686808967753  0.4998116289702200  0.2612603645084974   T   T   T
  0.2497761211484054  0.7497117105147715  0.2612236729618731   T   T   T
  0.4997008612097092  0.7495330654455049  0.3250380448172085   T   T   T
  0.7498047011833604  0.4998688361367126  0.3248817332523299   T   T   T
  0.7511218216095624  0.4512583300609835  0.4398113375916967   T   T   T
  0.6361355954322091  0.3370096062068811  0.4392527096216169   T   T   T
  0.5210049662373796  0.2228531487901121  0.4390114168726856   T   T   T
 
  0.00000000E+00  0.00000000E+00  0.00000000E+00
  0.00000000E+00  0.00000000E+00  0.00000000E+00
  0.00000000E+00  0.00000000E+00  0.00000000E+00
  0.00000000E+00  0.00000000E+00  0.00000000E+00
  0.00000000E+00  0.00000000E+00  0.00000000E+00
  0.00000000E+00  0.00000000E+00  0.00000000E+00
  0.00000000E+00  0.00000000E+00  0.00000000E+00
  0.00000000E+00  0.00000000E+00  0.00000000E+00
  0.00000000E+00  0.00000000E+00  0.00000000E+00
  0.00000000E+00  0.00000000E+00  0.00000000E+00
  0.00000000E+00  0.00000000E+00  0.00000000E+00
  0.00000000E+00  0.00000000E+00  0.00000000E+00
  0.00000000E+00  0.00000000E+00  0.00000000E+00
  0.00000000E+00  0.00000000E+00  0.00000000E+00
  0.00000000E+00  0.00000000E+00  0.00000000E+00
  0.00000000E+00  0.00000000E+00  0.00000000E+00
  0.00000000E+00  0.00000000E+00  0.00000000E+00
  0.00000000E+00  0.00000000E+00  0.00000000E+00
  0.00000000E+00  0.00000000E+00  0.00000000E+00
  0.00000000E+00  0.00000000E+00  0.00000000E+00
  0.00000000E+00  0.00000000E+00  0.00000000E+00
  0.00000000E+00  0.00000000E+00  0.00000000E+00
  0.00000000E+00  0.00000000E+00  0.00000000E+00
  0.00000000E+00  0.00000000E+00  0.00000000E+00
  0.00000000E+00  0.00000000E+00  0.00000000E+00
  0.00000000E+00  0.00000000E+00  0.00000000E+00
  0.00000000E+00  0.00000000E+00  0.00000000E+00
  0.00000000E+00  0.00000000E+00  0.00000000E+00
  0.00000000E+00  0.00000000E+00  0.00000000E+00
  0.00000000E+00  0.00000000E+00  0.00000000E+00
  0.00000000E+00  0.00000000E+00  0.00000000E+00
  0.00000000E+00  0.00000000E+00  0.00000000E+00
  0.00000000E+00  0.00000000E+00  0.00000000E+00
  0.00000000E+00  0.00000000E+00  0.00000000E+00
  0.00000000E+00  0.00000000E+00  0.00000000E+00
  0.00000000E+00  0.00000000E+00  0.00000000E+00
  0.00000000E+00  0.00000000E+00  0.00000000E+00
  0.00000000E+00  0.00000000E+00  0.00000000E+00
  0.00000000E+00  0.00000000E+00  0.00000000E+00
  0.00000000E+00  0.00000000E+00  0.00000000E+00
  0.00000000E+00  0.00000000E+00  0.00000000E+00
  0.00000000E+00  0.00000000E+00  0.00000000E+00
  0.00000000E+00  0.00000000E+00  0.00000000E+00
  0.00000000E+00  0.00000000E+00  0.00000000E+00
  0.00000000E+00  0.00000000E+00  0.00000000E+00
  0.00000000E+00  0.00000000E+00  0.00000000E+00
  0.00000000E+00  0.00000000E+00  0.00000000E+00
  0.00000000E+00  0.00000000E+00  0.00000000E+00
  0.00000000E+00  0.00000000E+00  0.00000000E+00
  0.00000000E+00  0.00000000E+00  0.00000000E+00
  0.00000000E+00  0.00000000E+00  0.00000000E+00
